small
0 31 0.53
1 33 0.56
2 29 0.65
3 33 0.98
4 28 0.77
5 33 0.44
6 31 0.45
7 32 0.28
8 29 0.38
9 35 0.59
10 26 0.67
11 29 0.36
12 27 0.55
13 29 0.6
14 29 0.25
medium
0 289 24.15
1 267 67.71
2 282 83.13
3 293 26.7
4 273 66.51
5 283 47.2
6 275 58.01
7 276 78.17
8 261 80.12
9 286 59.74
10 279 65.93
11 271 65.59
12 265 78.35
13 285 73.13
14 286 48.49
large
0 1484 562.82
1 1566 162.94
2 1461 571.92
3 1490 568.3
4 1475 568.07
5 1476 567.98
6 1490 571.6
7 1480 576.76
8 1470 576.94
9 1486 566.94
10 1489 564.9
11 1482 572.86
12 1477 574.46
13 1469 578.86
14 1499 565.6
